************************************************************************
file with basedata            : mm43_.bas
initial value random generator: 1654607668
************************************************************************
projects                      :  1
jobs (incl. supersource/sink ):  12
horizon                       :  83
RESOURCES
  - renewable                 :  2   R
  - nonrenewable              :  2   N
  - doubly constrained        :  0   D
************************************************************************
PROJECT INFORMATION:
pronr.  #jobs rel.date duedate tardcost  MPM-Time
    1     10      0       14        0       14
************************************************************************
PRECEDENCE RELATIONS:
jobnr.    #modes  #successors   successors
   0        1          3           1   2   3
   1        3          2           4   5
   2        3          1           8
   3        3          2           8  10
   4        3          1           7
   5        3          2           6  10
   6        3          2           8   9
   7        3          2           9  10
   8        3          1          11
   9        3          1          11
  10        3          1          11
  11        1          0        
************************************************************************
REQUESTS/DURATIONS:
jobnr. mode duration  R 1  R 2  R 3  R 4  E(W 1)  E(W 2)  E(W 3)
------------------------------------------------------------------------
  0      1     0       0    0    0    0     0       0       0
  1      1     1       4    7   10    0    11      10       0
  2      1     2       8    3    0    4    22       0       8
  3      1     3       7    9    0    6    48       0      18
  4      1     1       7    8    8    0    15       8       0
  5      1     5       5    2    0    8    35       0      40
  6      1     3       6    9    0    8    45       0      24
  7      1     4      10    7    0    5    68       0      20
  8      1     3       6    9    0    9    45       0      27
  9      1     5       5    6    3    0    55      15       0
 10      1     3       5    8    0    7    39       0      21
 11      1     0       0    0    0    0     0       0       0
************************************************************************
RESOURCEAVAILABILITIES:
  R 1  R 2  R 3
   32   35   48
************************************************************************
RESOURCE LIMITS:
jobnr.  l(R 1)  u(R 1)  l(R 2)  u(R 2)  l(R 3)  u(R 3)
------------------------------------------------------------------------
  0        0       0       0       0       0       0
  1        6      11       5      10       0       0
  2        6      11       0       0       2       4
  3        9      16       0       0       3       6
  4        8      15       4       8       0       0
  5        4       7       0       0       4       8
  6        8      15       0       0       4       8
  7        9      17       0       0       3       5
  8        8      15       0       0       5       9
  9        6      11       2       3       0       0
 10        7      13       0       0       4       7
 11        0       0       0       0       0       0
************************************************************************
SCENARIOS:
------------------------------------------------------------------------
RESOURCE k = 1
s = 1: (0, 10, 22, 40, 11, 40, 35, 66, 61, 32, 37, 0)
s = 2: (0, 14, 29, 37, 23, 24, 33, 44, 40, 45, 26, 0)
s = 3: (0, 10, 14, 49, 10, 42, 66, 116, 40, 55, 29, 0)
s = 4: (0, 11, 18, 62, 24, 23, 65, 53, 31, 50, 31, 0)
s = 5: (0, 12, 29, 33, 14, 42, 33, 58, 52, 77, 24, 0)
s = 6: (0, 9, 15, 54, 10, 43, 61, 72, 67, 54, 52, 0)
s = 7: (0, 11, 20, 46, 12, 20, 60, 58, 69, 61, 49, 0)
s = 8: (0, 12, 20, 66, 12, 29, 39, 67, 53, 58, 42, 0)
s = 9: (0, 9, 19, 28, 10, 51, 32, 77, 57, 60, 29, 0)
s = 10: (0, 10, 28, 25, 17, 50, 52, 81, 44, 57, 42, 0)
s = 11: (0, 10, 28, 51, 15, 50, 37, 88, 40, 31, 53, 0)
s = 12: (0, 8, 26, 60, 14, 24, 35, 62, 34, 54, 41, 0)
s = 13: (0, 13, 25, 46, 25, 24, 39, 84, 31, 72, 36, 0)
s = 14: (0, 9, 18, 59, 12, 38, 41, 37, 53, 60, 48, 0)
s = 15: (0, 8, 18, 29, 15, 37, 55, 41, 49, 69, 39, 0)
s = 16: (0, 14, 14, 36, 12, 28, 65, 69, 34, 55, 39, 0)
s = 17: (0, 10, 25, 60, 19, 53, 31, 49, 65, 84, 38, 0)
s = 18: (0, 16, 20, 38, 16, 60, 59, 63, 37, 47, 35, 0)
s = 19: (0, 12, 14, 29, 27, 22, 41, 64, 46, 32, 35, 0)
s = 20: (0, 13, 28, 43, 14, 34, 45, 83, 44, 73, 37, 0)
s = 21: (0, 17, 23, 51, 22, 34, 66, 38, 68, 57, 44, 0)
s = 22: (0, 7, 24, 66, 11, 23, 33, 49, 65, 62, 34, 0)
s = 23: (0, 7, 18, 64, 16, 44, 48, 65, 36, 51, 27, 0)
s = 24: (0, 14, 23, 48, 10, 28, 43, 113, 38, 32, 35, 0)
s = 25: (0, 11, 26, 60, 12, 23, 43, 126, 51, 61, 29, 0)
s = 26: (0, 12, 22, 48, 10, 32, 56, 68, 52, 48, 28, 0)
s = 27: (0, 10, 17, 37, 21, 48, 64, 59, 60, 59, 35, 0)
s = 28: (0, 11, 20, 40, 11, 46, 27, 76, 49, 72, 26, 0)
s = 29: (0, 10, 31, 40, 21, 35, 41, 75, 26, 62, 26, 0)
s = 30: (0, 11, 24, 38, 12, 24, 51, 71, 62, 32, 54, 0)
s = 31: (0, 15, 34, 79, 15, 26, 50, 43, 29, 66, 56, 0)
s = 32: (0, 8, 20, 54, 14, 37, 32, 47, 48, 44, 37, 0)
s = 33: (0, 15, 28, 32, 13, 50, 43, 80, 53, 51, 53, 0)
s = 34: (0, 14, 27, 39, 12, 43, 53, 65, 31, 40, 22, 0)
s = 35: (0, 19, 20, 48, 18, 43, 34, 65, 67, 83, 38, 0)
s = 36: (0, 9, 28, 49, 26, 23, 34, 87, 37, 43, 53, 0)
s = 37: (0, 11, 30, 40, 10, 33, 45, 90, 28, 33, 37, 0)
s = 38: (0, 17, 33, 34, 13, 21, 58, 63, 58, 36, 48, 0)
s = 39: (0, 8, 24, 70, 12, 33, 46, 91, 57, 32, 33, 0)
s = 40: (0, 12, 19, 66, 17, 37, 43, 55, 49, 55, 26, 0)
s = 41: (0, 11, 21, 38, 14, 23, 42, 68, 63, 73, 40, 0)
s = 42: (0, 7, 27, 47, 14, 24, 31, 41, 48, 49, 27, 0)
s = 43: (0, 9, 37, 73, 15, 22, 46, 74, 49, 51, 45, 0)
s = 44: (0, 7, 14, 48, 12, 44, 35, 47, 43, 50, 51, 0)
s = 45: (0, 15, 14, 48, 14, 23, 48, 63, 43, 94, 37, 0)
s = 46: (0, 11, 28, 41, 17, 44, 58, 46, 77, 67, 37, 0)
s = 47: (0, 8, 15, 37, 15, 20, 53, 55, 34, 61, 42, 0)
s = 48: (0, 8, 20, 38, 9, 29, 43, 84, 40, 44, 38, 0)
s = 49: (0, 12, 35, 42, 14, 22, 33, 49, 29, 61, 31, 0)
s = 50: (0, 9, 18, 44, 13, 53, 39, 53, 39, 57, 32, 0)
s = 51: (0, 7, 19, 70, 12, 42, 29, 91, 25, 46, 44, 0)
s = 52: (0, 15, 12, 56, 23, 39, 42, 51, 42, 75, 48, 0)
s = 53: (0, 15, 13, 43, 21, 20, 32, 85, 49, 50, 38, 0)
s = 54: (0, 10, 25, 31, 23, 20, 51, 61, 38, 74, 69, 0)
s = 55: (0, 11, 29, 33, 11, 39, 63, 76, 35, 59, 38, 0)
s = 56: (0, 19, 14, 39, 22, 44, 29, 51, 33, 68, 37, 0)
s = 57: (0, 12, 19, 40, 10, 33, 28, 60, 36, 78, 60, 0)
s = 58: (0, 12, 37, 31, 20, 35, 41, 74, 59, 50, 42, 0)
s = 59: (0, 11, 24, 53, 13, 29, 26, 54, 31, 44, 47, 0)
s = 60: (0, 15, 23, 48, 11, 23, 60, 47, 36, 62, 69, 0)
s = 61: (0, 17, 28, 38, 14, 26, 42, 77, 39, 44, 42, 0)
s = 62: (0, 15, 12, 88, 11, 39, 54, 104, 58, 63, 35, 0)
s = 63: (0, 8, 35, 30, 10, 33, 26, 72, 62, 54, 56, 0)
s = 64: (0, 10, 24, 59, 17, 28, 33, 51, 52, 79, 33, 0)
s = 65: (0, 9, 22, 48, 13, 29, 58, 96, 41, 65, 48, 0)
s = 66: (0, 13, 30, 76, 12, 28, 44, 54, 33, 74, 31, 0)
s = 67: (0, 13, 17, 31, 8, 32, 43, 85, 51, 44, 38, 0)
s = 68: (0, 11, 18, 42, 15, 25, 38, 107, 30, 82, 35, 0)
s = 69: (0, 7, 25, 58, 12, 24, 46, 63, 36, 39, 43, 0)
s = 70: (0, 11, 39, 62, 12, 30, 25, 88, 27, 66, 33, 0)
s = 71: (0, 10, 25, 45, 11, 24, 35, 50, 40, 39, 58, 0)
s = 72: (0, 10, 12, 47, 9, 26, 57, 80, 31, 50, 59, 0)
s = 73: (0, 10, 32, 27, 10, 41, 30, 79, 35, 91, 39, 0)
s = 74: (0, 14, 37, 70, 16, 40, 46, 56, 40, 32, 30, 0)
s = 75: (0, 13, 20, 48, 10, 20, 43, 51, 36, 93, 45, 0)
s = 76: (0, 10, 26, 48, 14, 26, 42, 104, 50, 34, 59, 0)
s = 77: (0, 13, 38, 33, 23, 36, 36, 65, 41, 42, 25, 0)
s = 78: (0, 9, 18, 60, 18, 21, 25, 66, 56, 54, 26, 0)
s = 79: (0, 8, 26, 64, 14, 47, 35, 54, 53, 59, 48, 0)
s = 80: (0, 8, 20, 55, 22, 59, 26, 61, 39, 50, 50, 0)
s = 81: (0, 9, 28, 37, 23, 34, 40, 89, 58, 31, 31, 0)
s = 82: (0, 10, 25, 38, 14, 59, 33, 86, 39, 64, 46, 0)
s = 83: (0, 8, 35, 63, 18, 52, 49, 72, 40, 66, 55, 0)
s = 84: (0, 14, 26, 44, 19, 44, 61, 82, 32, 67, 45, 0)
s = 85: (0, 12, 16, 40, 10, 34, 43, 83, 47, 58, 25, 0)
s = 86: (0, 14, 32, 38, 16, 53, 39, 89, 44, 66, 30, 0)
s = 87: (0, 10, 20, 39, 15, 48, 26, 70, 24, 39, 40, 0)
s = 88: (0, 10, 26, 69, 18, 33, 71, 94, 41, 57, 41, 0)
s = 89: (0, 9, 30, 59, 19, 39, 39, 75, 62, 57, 25, 0)
s = 90: (0, 13, 29, 45, 10, 41, 56, 59, 43, 32, 28, 0)
s = 91: (0, 15, 31, 59, 16, 36, 57, 67, 84, 57, 31, 0)
s = 92: (0, 20, 15, 50, 24, 45, 50, 52, 64, 105, 59, 0)
s = 93: (0, 10, 33, 40, 22, 44, 27, 74, 38, 61, 29, 0)
s = 94: (0, 13, 20, 33, 14, 30, 37, 43, 32, 71, 39, 0)
s = 95: (0, 10, 31, 46, 19, 40, 68, 35, 35, 38, 35, 0)
s = 96: (0, 17, 37, 40, 13, 44, 54, 64, 34, 45, 22, 0)
s = 97: (0, 13, 16, 47, 16, 21, 26, 68, 51, 62, 31, 0)
s = 98: (0, 8, 32, 46, 16, 29, 42, 42, 42, 45, 46, 0)
s = 99: (0, 15, 16, 35, 17, 28, 51, 55, 32, 71, 37, 0)
s = 100: (0, 9, 15, 52, 20, 20, 38, 77, 47, 52, 47, 0)
s = 101: (0, 7, 22, 63, 17, 46, 35, 113, 33, 85, 31, 0)
s = 102: (0, 7, 19, 39, 13, 36, 28, 51, 32, 65, 57, 0)
s = 103: (0, 11, 22, 66, 10, 33, 48, 83, 26, 49, 28, 0)
s = 104: (0, 10, 23, 64, 10, 53, 27, 70, 54, 52, 39, 0)
s = 105: (0, 8, 14, 33, 18, 41, 33, 74, 32, 70, 48, 0)
s = 106: (0, 8, 22, 45, 14, 39, 31, 72, 38, 30, 37, 0)
s = 107: (0, 9, 25, 38, 14, 49, 29, 87, 34, 70, 42, 0)
s = 108: (0, 8, 14, 52, 11, 36, 40, 57, 50, 68, 37, 0)
s = 109: (0, 11, 15, 28, 15, 44, 45, 51, 29, 49, 37, 0)
s = 110: (0, 13, 14, 42, 17, 60, 36, 56, 71, 30, 33, 0)
s = 111: (0, 12, 23, 57, 16, 47, 52, 49, 37, 56, 42, 0)
s = 112: (0, 10, 27, 59, 13, 34, 56, 66, 66, 47, 41, 0)
s = 113: (0, 20, 20, 49, 16, 23, 62, 77, 54, 43, 33, 0)
s = 114: (0, 14, 18, 52, 13, 18, 46, 84, 40, 58, 46, 0)
s = 115: (0, 7, 16, 31, 9, 47, 36, 60, 53, 56, 34, 0)
s = 116: (0, 9, 13, 62, 19, 50, 52, 76, 30, 36, 38, 0)
s = 117: (0, 11, 15, 48, 18, 33, 56, 61, 52, 79, 23, 0)
s = 118: (0, 9, 15, 54, 15, 30, 43, 69, 32, 52, 57, 0)
s = 119: (0, 11, 21, 67, 23, 22, 46, 105, 46, 77, 27, 0)
s = 120: (0, 13, 16, 56, 24, 27, 36, 66, 47, 63, 38, 0)
s = 121: (0, 14, 15, 34, 13, 23, 45, 85, 39, 42, 35, 0)
s = 122: (0, 11, 34, 56, 9, 29, 55, 83, 67, 45, 27, 0)
s = 123: (0, 19, 25, 46, 12, 43, 55, 51, 60, 40, 43, 0)
s = 124: (0, 11, 21, 36, 26, 46, 53, 63, 39, 68, 50, 0)
s = 125: (0, 12, 20, 62, 14, 21, 38, 58, 46, 47, 33, 0)
s = 126: (0, 11, 36, 51, 15, 32, 36, 101, 51, 73, 41, 0)
s = 127: (0, 8, 30, 42, 22, 32, 35, 92, 38, 45, 56, 0)
s = 128: (0, 13, 32, 49, 13, 36, 77, 55, 45, 70, 56, 0)
s = 129: (0, 17, 16, 36, 15, 33, 31, 65, 29, 48, 34, 0)
s = 130: (0, 10, 17, 49, 10, 32, 27, 61, 43, 59, 56, 0)
s = 131: (0, 16, 23, 56, 18, 25, 36, 78, 35, 84, 49, 0)
s = 132: (0, 12, 20, 49, 17, 44, 62, 99, 67, 62, 31, 0)
s = 133: (0, 8, 16, 47, 9, 24, 27, 51, 37, 88, 59, 0)
s = 134: (0, 15, 15, 58, 12, 34, 34, 49, 27, 51, 49, 0)
s = 135: (0, 14, 25, 35, 19, 58, 58, 37, 65, 56, 44, 0)
s = 136: (0, 12, 30, 85, 12, 40, 43, 51, 59, 63, 50, 0)
s = 137: (0, 12, 31, 57, 18, 38, 49, 74, 50, 94, 32, 0)
s = 138: (0, 12, 28, 63, 12, 38, 29, 73, 60, 87, 25, 0)
s = 139: (0, 14, 18, 29, 10, 24, 62, 66, 52, 66, 27, 0)
s = 140: (0, 11, 26, 71, 27, 46, 31, 46, 36, 55, 36, 0)
s = 141: (0, 16, 15, 56, 20, 35, 64, 69, 53, 72, 37, 0)
s = 142: (0, 14, 25, 42, 17, 26, 36, 59, 40, 41, 38, 0)
s = 143: (0, 16, 31, 66, 12, 38, 32, 59, 50, 43, 32, 0)
s = 144: (0, 12, 19, 39, 15, 45, 54, 56, 33, 54, 45, 0)
s = 145: (0, 11, 24, 62, 16, 32, 31, 69, 58, 35, 62, 0)
s = 146: (0, 12, 16, 53, 11, 37, 43, 77, 42, 67, 25, 0)
s = 147: (0, 12, 24, 42, 16, 38, 51, 65, 35, 50, 64, 0)
s = 148: (0, 15, 19, 39, 12, 26, 55, 75, 39, 38, 28, 0)
s = 149: (0, 8, 24, 27, 17, 32, 33, 79, 36, 49, 29, 0)
s = 150: (0, 19, 14, 51, 14, 42, 41, 103, 26, 44, 39, 0)
s = 151: (0, 17, 23, 35, 14, 40, 44, 91, 38, 44, 29, 0)
s = 152: (0, 14, 17, 45, 19, 50, 47, 70, 35, 69, 44, 0)
s = 153: (0, 12, 21, 37, 10, 22, 55, 66, 56, 34, 56, 0)
s = 154: (0, 9, 18, 52, 28, 32, 69, 78, 31, 56, 40, 0)
s = 155: (0, 10, 13, 42, 17, 31, 27, 113, 43, 89, 34, 0)
s = 156: (0, 10, 29, 48, 15, 42, 41, 54, 36, 75, 44, 0)
s = 157: (0, 17, 14, 68, 22, 35, 40, 65, 69, 38, 30, 0)
s = 158: (0, 9, 27, 45, 17, 25, 38, 41, 49, 51, 36, 0)
s = 159: (0, 9, 14, 57, 12, 26, 38, 43, 51, 71, 24, 0)
s = 160: (0, 11, 29, 35, 17, 47, 30, 40, 59, 59, 39, 0)
s = 161: (0, 9, 27, 50, 16, 37, 61, 71, 50, 82, 42, 0)
s = 162: (0, 9, 28, 42, 11, 35, 74, 79, 42, 40, 29, 0)
s = 163: (0, 7, 19, 50, 16, 23, 44, 105, 42, 35, 22, 0)
s = 164: (0, 8, 13, 31, 13, 26, 51, 93, 70, 53, 33, 0)
s = 165: (0, 8, 18, 45, 19, 30, 34, 83, 28, 69, 24, 0)
s = 166: (0, 9, 26, 32, 19, 38, 44, 48, 29, 63, 62, 0)
s = 167: (0, 8, 20, 50, 16, 33, 55, 57, 43, 76, 47, 0)
s = 168: (0, 15, 23, 36, 9, 30, 33, 68, 44, 42, 60, 0)
s = 169: (0, 8, 17, 32, 14, 35, 48, 69, 36, 75, 43, 0)
s = 170: (0, 18, 33, 48, 12, 35, 44, 59, 40, 59, 45, 0)
s = 171: (0, 10, 28, 48, 15, 21, 31, 76, 32, 49, 42, 0)
s = 172: (0, 13, 24, 74, 15, 21, 49, 69, 62, 79, 36, 0)
s = 173: (0, 9, 22, 53, 12, 27, 67, 65, 34, 54, 51, 0)
s = 174: (0, 7, 20, 46, 12, 51, 36, 57, 54, 43, 51, 0)
s = 175: (0, 13, 28, 47, 10, 37, 26, 92, 62, 88, 43, 0)
s = 176: (0, 11, 21, 44, 25, 32, 31, 50, 44, 38, 66, 0)
s = 177: (0, 21, 30, 42, 16, 37, 43, 62, 42, 52, 37, 0)
s = 178: (0, 12, 28, 52, 9, 27, 79, 66, 45, 59, 40, 0)
s = 179: (0, 11, 19, 35, 11, 38, 68, 48, 35, 55, 37, 0)
s = 180: (0, 13, 28, 82, 10, 46, 51, 60, 36, 45, 38, 0)
s = 181: (0, 13, 13, 46, 12, 40, 47, 46, 52, 95, 45, 0)
s = 182: (0, 7, 30, 54, 14, 44, 37, 58, 39, 55, 51, 0)
s = 183: (0, 8, 13, 40, 18, 25, 48, 81, 45, 39, 40, 0)
s = 184: (0, 11, 16, 36, 13, 32, 46, 45, 58, 42, 22, 0)
s = 185: (0, 18, 16, 40, 17, 30, 39, 69, 37, 52, 28, 0)
s = 186: (0, 11, 18, 69, 16, 40, 58, 61, 43, 45, 63, 0)
s = 187: (0, 11, 13, 31, 24, 43, 67, 89, 69, 47, 35, 0)
s = 188: (0, 17, 30, 38, 21, 23, 24, 53, 65, 29, 47, 0)
s = 189: (0, 9, 24, 36, 18, 29, 57, 84, 50, 55, 31, 0)
s = 190: (0, 12, 16, 37, 15, 25, 39, 65, 53, 54, 26, 0)
s = 191: (0, 12, 14, 29, 18, 39, 46, 62, 48, 41, 32, 0)
s = 192: (0, 10, 17, 49, 15, 39, 43, 51, 57, 37, 53, 0)
s = 193: (0, 13, 30, 52, 22, 26, 63, 51, 25, 61, 30, 0)
s = 194: (0, 10, 22, 85, 10, 23, 34, 98, 55, 66, 37, 0)
s = 195: (0, 11, 22, 48, 17, 26, 44, 46, 39, 37, 60, 0)
s = 196: (0, 14, 27, 59, 21, 40, 41, 74, 45, 53, 29, 0)
s = 197: (0, 13, 24, 46, 20, 33, 47, 101, 42, 62, 45, 0)
s = 198: (0, 11, 27, 41, 14, 44, 39, 44, 34, 36, 43, 0)
s = 199: (0, 9, 28, 42, 11, 24, 32, 107, 55, 67, 25, 0)
s = 200: (0, 12, 19, 53, 11, 23, 39, 79, 51, 81, 29, 0)
------------------------------------------------------------------------
RESOURCE k = 2
s = 1: (0, 9, 0, 0, 6, 0, 0, 0, 0, 9, 0, 0)
s = 2: (0, 13, 0, 0, 12, 0, 0, 0, 0, 13, 0, 0)
s = 3: (0, 9, 0, 0, 6, 0, 0, 0, 0, 15, 0, 0)
s = 4: (0, 10, 0, 0, 13, 0, 0, 0, 0, 14, 0, 0)
s = 5: (0, 11, 0, 0, 8, 0, 0, 0, 0, 21, 0, 0)
s = 6: (0, 8, 0, 0, 5, 0, 0, 0, 0, 15, 0, 0)
s = 7: (0, 10, 0, 0, 7, 0, 0, 0, 0, 17, 0, 0)
s = 8: (0, 11, 0, 0, 7, 0, 0, 0, 0, 16, 0, 0)
s = 9: (0, 8, 0, 0, 5, 0, 0, 0, 0, 17, 0, 0)
s = 10: (0, 9, 0, 0, 9, 0, 0, 0, 0, 16, 0, 0)
s = 11: (0, 10, 0, 0, 8, 0, 0, 0, 0, 9, 0, 0)
s = 12: (0, 8, 0, 0, 8, 0, 0, 0, 0, 15, 0, 0)
s = 13: (0, 12, 0, 0, 14, 0, 0, 0, 0, 20, 0, 0)
s = 14: (0, 8, 0, 0, 6, 0, 0, 0, 0, 17, 0, 0)
s = 15: (0, 8, 0, 0, 8, 0, 0, 0, 0, 19, 0, 0)
s = 16: (0, 13, 0, 0, 6, 0, 0, 0, 0, 15, 0, 0)
s = 17: (0, 9, 0, 0, 10, 0, 0, 0, 0, 23, 0, 0)
s = 18: (0, 14, 0, 0, 9, 0, 0, 0, 0, 13, 0, 0)
s = 19: (0, 11, 0, 0, 15, 0, 0, 0, 0, 9, 0, 0)
s = 20: (0, 12, 0, 0, 8, 0, 0, 0, 0, 20, 0, 0)
s = 21: (0, 15, 0, 0, 12, 0, 0, 0, 0, 16, 0, 0)
s = 22: (0, 6, 0, 0, 6, 0, 0, 0, 0, 17, 0, 0)
s = 23: (0, 6, 0, 0, 9, 0, 0, 0, 0, 14, 0, 0)
s = 24: (0, 12, 0, 0, 5, 0, 0, 0, 0, 9, 0, 0)
s = 25: (0, 10, 0, 0, 7, 0, 0, 0, 0, 17, 0, 0)
s = 26: (0, 11, 0, 0, 5, 0, 0, 0, 0, 14, 0, 0)
s = 27: (0, 9, 0, 0, 12, 0, 0, 0, 0, 17, 0, 0)
s = 28: (0, 10, 0, 0, 6, 0, 0, 0, 0, 20, 0, 0)
s = 29: (0, 9, 0, 0, 12, 0, 0, 0, 0, 17, 0, 0)
s = 30: (0, 10, 0, 0, 7, 0, 0, 0, 0, 9, 0, 0)
s = 31: (0, 14, 0, 0, 8, 0, 0, 0, 0, 18, 0, 0)
s = 32: (0, 8, 0, 0, 7, 0, 0, 0, 0, 12, 0, 0)
s = 33: (0, 14, 0, 0, 7, 0, 0, 0, 0, 14, 0, 0)
s = 34: (0, 12, 0, 0, 6, 0, 0, 0, 0, 11, 0, 0)
s = 35: (0, 17, 0, 0, 10, 0, 0, 0, 0, 23, 0, 0)
s = 36: (0, 8, 0, 0, 14, 0, 0, 0, 0, 12, 0, 0)
s = 37: (0, 10, 0, 0, 5, 0, 0, 0, 0, 9, 0, 0)
s = 38: (0, 16, 0, 0, 7, 0, 0, 0, 0, 10, 0, 0)
s = 39: (0, 7, 0, 0, 6, 0, 0, 0, 0, 9, 0, 0)
s = 40: (0, 11, 0, 0, 9, 0, 0, 0, 0, 15, 0, 0)
s = 41: (0, 10, 0, 0, 8, 0, 0, 0, 0, 20, 0, 0)
s = 42: (0, 6, 0, 0, 8, 0, 0, 0, 0, 14, 0, 0)
s = 43: (0, 8, 0, 0, 8, 0, 0, 0, 0, 14, 0, 0)
s = 44: (0, 7, 0, 0, 7, 0, 0, 0, 0, 14, 0, 0)
s = 45: (0, 14, 0, 0, 7, 0, 0, 0, 0, 26, 0, 0)
s = 46: (0, 10, 0, 0, 10, 0, 0, 0, 0, 19, 0, 0)
s = 47: (0, 7, 0, 0, 8, 0, 0, 0, 0, 17, 0, 0)
s = 48: (0, 7, 0, 0, 5, 0, 0, 0, 0, 12, 0, 0)
s = 49: (0, 11, 0, 0, 7, 0, 0, 0, 0, 17, 0, 0)
s = 50: (0, 8, 0, 0, 7, 0, 0, 0, 0, 16, 0, 0)
s = 51: (0, 7, 0, 0, 7, 0, 0, 0, 0, 13, 0, 0)
s = 52: (0, 13, 0, 0, 13, 0, 0, 0, 0, 21, 0, 0)
s = 53: (0, 14, 0, 0, 11, 0, 0, 0, 0, 14, 0, 0)
s = 54: (0, 9, 0, 0, 13, 0, 0, 0, 0, 21, 0, 0)
s = 55: (0, 10, 0, 0, 6, 0, 0, 0, 0, 16, 0, 0)
s = 56: (0, 17, 0, 0, 12, 0, 0, 0, 0, 19, 0, 0)
s = 57: (0, 11, 0, 0, 5, 0, 0, 0, 0, 22, 0, 0)
s = 58: (0, 11, 0, 0, 11, 0, 0, 0, 0, 14, 0, 0)
s = 59: (0, 10, 0, 0, 7, 0, 0, 0, 0, 12, 0, 0)
s = 60: (0, 13, 0, 0, 6, 0, 0, 0, 0, 17, 0, 0)
s = 61: (0, 15, 0, 0, 8, 0, 0, 0, 0, 12, 0, 0)
s = 62: (0, 14, 0, 0, 6, 0, 0, 0, 0, 17, 0, 0)
s = 63: (0, 7, 0, 0, 6, 0, 0, 0, 0, 15, 0, 0)
s = 64: (0, 9, 0, 0, 9, 0, 0, 0, 0, 22, 0, 0)
s = 65: (0, 8, 0, 0, 7, 0, 0, 0, 0, 18, 0, 0)
s = 66: (0, 12, 0, 0, 7, 0, 0, 0, 0, 21, 0, 0)
s = 67: (0, 12, 0, 0, 5, 0, 0, 0, 0, 12, 0, 0)
s = 68: (0, 10, 0, 0, 8, 0, 0, 0, 0, 23, 0, 0)
s = 69: (0, 7, 0, 0, 6, 0, 0, 0, 0, 11, 0, 0)
s = 70: (0, 10, 0, 0, 6, 0, 0, 0, 0, 18, 0, 0)
s = 71: (0, 10, 0, 0, 6, 0, 0, 0, 0, 11, 0, 0)
s = 72: (0, 9, 0, 0, 5, 0, 0, 0, 0, 14, 0, 0)
s = 73: (0, 9, 0, 0, 5, 0, 0, 0, 0, 25, 0, 0)
s = 74: (0, 13, 0, 0, 9, 0, 0, 0, 0, 9, 0, 0)
s = 75: (0, 12, 0, 0, 6, 0, 0, 0, 0, 26, 0, 0)
s = 76: (0, 9, 0, 0, 8, 0, 0, 0, 0, 10, 0, 0)
s = 77: (0, 12, 0, 0, 13, 0, 0, 0, 0, 12, 0, 0)
s = 78: (0, 8, 0, 0, 10, 0, 0, 0, 0, 15, 0, 0)
s = 79: (0, 8, 0, 0, 8, 0, 0, 0, 0, 17, 0, 0)
s = 80: (0, 7, 0, 0, 12, 0, 0, 0, 0, 14, 0, 0)
s = 81: (0, 9, 0, 0, 13, 0, 0, 0, 0, 9, 0, 0)
s = 82: (0, 9, 0, 0, 8, 0, 0, 0, 0, 18, 0, 0)
s = 83: (0, 8, 0, 0, 10, 0, 0, 0, 0, 18, 0, 0)
s = 84: (0, 13, 0, 0, 10, 0, 0, 0, 0, 19, 0, 0)
s = 85: (0, 11, 0, 0, 6, 0, 0, 0, 0, 16, 0, 0)
s = 86: (0, 13, 0, 0, 9, 0, 0, 0, 0, 18, 0, 0)
s = 87: (0, 9, 0, 0, 8, 0, 0, 0, 0, 11, 0, 0)
s = 88: (0, 10, 0, 0, 10, 0, 0, 0, 0, 16, 0, 0)
s = 89: (0, 8, 0, 0, 10, 0, 0, 0, 0, 16, 0, 0)
s = 90: (0, 12, 0, 0, 6, 0, 0, 0, 0, 9, 0, 0)
s = 91: (0, 14, 0, 0, 9, 0, 0, 0, 0, 16, 0, 0)
s = 92: (0, 18, 0, 0, 13, 0, 0, 0, 0, 29, 0, 0)
s = 93: (0, 10, 0, 0, 12, 0, 0, 0, 0, 17, 0, 0)
s = 94: (0, 12, 0, 0, 8, 0, 0, 0, 0, 20, 0, 0)
s = 95: (0, 9, 0, 0, 11, 0, 0, 0, 0, 11, 0, 0)
s = 96: (0, 16, 0, 0, 7, 0, 0, 0, 0, 13, 0, 0)
s = 97: (0, 12, 0, 0, 9, 0, 0, 0, 0, 17, 0, 0)
s = 98: (0, 7, 0, 0, 9, 0, 0, 0, 0, 13, 0, 0)
s = 99: (0, 13, 0, 0, 9, 0, 0, 0, 0, 20, 0, 0)
s = 100: (0, 8, 0, 0, 11, 0, 0, 0, 0, 14, 0, 0)
s = 101: (0, 6, 0, 0, 9, 0, 0, 0, 0, 24, 0, 0)
s = 102: (0, 6, 0, 0, 7, 0, 0, 0, 0, 18, 0, 0)
s = 103: (0, 10, 0, 0, 6, 0, 0, 0, 0, 14, 0, 0)
s = 104: (0, 9, 0, 0, 6, 0, 0, 0, 0, 15, 0, 0)
s = 105: (0, 7, 0, 0, 10, 0, 0, 0, 0, 19, 0, 0)
s = 106: (0, 7, 0, 0, 8, 0, 0, 0, 0, 8, 0, 0)
s = 107: (0, 8, 0, 0, 8, 0, 0, 0, 0, 19, 0, 0)
s = 108: (0, 7, 0, 0, 6, 0, 0, 0, 0, 19, 0, 0)
s = 109: (0, 10, 0, 0, 8, 0, 0, 0, 0, 14, 0, 0)
s = 110: (0, 11, 0, 0, 9, 0, 0, 0, 0, 9, 0, 0)
s = 111: (0, 11, 0, 0, 9, 0, 0, 0, 0, 16, 0, 0)
s = 112: (0, 9, 0, 0, 7, 0, 0, 0, 0, 13, 0, 0)
s = 113: (0, 18, 0, 0, 9, 0, 0, 0, 0, 12, 0, 0)
s = 114: (0, 13, 0, 0, 7, 0, 0, 0, 0, 16, 0, 0)
s = 115: (0, 6, 0, 0, 5, 0, 0, 0, 0, 16, 0, 0)
s = 116: (0, 8, 0, 0, 11, 0, 0, 0, 0, 10, 0, 0)
s = 117: (0, 10, 0, 0, 10, 0, 0, 0, 0, 22, 0, 0)
s = 118: (0, 9, 0, 0, 8, 0, 0, 0, 0, 15, 0, 0)
s = 119: (0, 10, 0, 0, 13, 0, 0, 0, 0, 21, 0, 0)
s = 120: (0, 12, 0, 0, 13, 0, 0, 0, 0, 17, 0, 0)
s = 121: (0, 13, 0, 0, 7, 0, 0, 0, 0, 12, 0, 0)
s = 122: (0, 10, 0, 0, 5, 0, 0, 0, 0, 13, 0, 0)
s = 123: (0, 18, 0, 0, 7, 0, 0, 0, 0, 11, 0, 0)
s = 124: (0, 10, 0, 0, 14, 0, 0, 0, 0, 19, 0, 0)
s = 125: (0, 11, 0, 0, 8, 0, 0, 0, 0, 13, 0, 0)
s = 126: (0, 10, 0, 0, 8, 0, 0, 0, 0, 20, 0, 0)
s = 127: (0, 7, 0, 0, 12, 0, 0, 0, 0, 13, 0, 0)
s = 128: (0, 11, 0, 0, 7, 0, 0, 0, 0, 19, 0, 0)
s = 129: (0, 15, 0, 0, 8, 0, 0, 0, 0, 13, 0, 0)
s = 130: (0, 10, 0, 0, 5, 0, 0, 0, 0, 16, 0, 0)
s = 131: (0, 15, 0, 0, 10, 0, 0, 0, 0, 23, 0, 0)
s = 132: (0, 11, 0, 0, 9, 0, 0, 0, 0, 17, 0, 0)
s = 133: (0, 7, 0, 0, 5, 0, 0, 0, 0, 24, 0, 0)
s = 134: (0, 14, 0, 0, 6, 0, 0, 0, 0, 14, 0, 0)
s = 135: (0, 13, 0, 0, 11, 0, 0, 0, 0, 16, 0, 0)
s = 136: (0, 11, 0, 0, 7, 0, 0, 0, 0, 18, 0, 0)
s = 137: (0, 11, 0, 0, 10, 0, 0, 0, 0, 26, 0, 0)
s = 138: (0, 11, 0, 0, 7, 0, 0, 0, 0, 24, 0, 0)
s = 139: (0, 13, 0, 0, 6, 0, 0, 0, 0, 18, 0, 0)
s = 140: (0, 10, 0, 0, 14, 0, 0, 0, 0, 15, 0, 0)
s = 141: (0, 15, 0, 0, 11, 0, 0, 0, 0, 20, 0, 0)
s = 142: (0, 13, 0, 0, 9, 0, 0, 0, 0, 11, 0, 0)
s = 143: (0, 14, 0, 0, 7, 0, 0, 0, 0, 12, 0, 0)
s = 144: (0, 11, 0, 0, 8, 0, 0, 0, 0, 15, 0, 0)
s = 145: (0, 10, 0, 0, 9, 0, 0, 0, 0, 10, 0, 0)
s = 146: (0, 11, 0, 0, 6, 0, 0, 0, 0, 19, 0, 0)
s = 147: (0, 11, 0, 0, 9, 0, 0, 0, 0, 14, 0, 0)
s = 148: (0, 14, 0, 0, 7, 0, 0, 0, 0, 11, 0, 0)
s = 149: (0, 7, 0, 0, 9, 0, 0, 0, 0, 14, 0, 0)
s = 150: (0, 17, 0, 0, 8, 0, 0, 0, 0, 12, 0, 0)
s = 151: (0, 16, 0, 0, 8, 0, 0, 0, 0, 12, 0, 0)
s = 152: (0, 13, 0, 0, 10, 0, 0, 0, 0, 19, 0, 0)
s = 153: (0, 11, 0, 0, 6, 0, 0, 0, 0, 10, 0, 0)
s = 154: (0, 8, 0, 0, 15, 0, 0, 0, 0, 16, 0, 0)
s = 155: (0, 9, 0, 0, 10, 0, 0, 0, 0, 25, 0, 0)
s = 156: (0, 9, 0, 0, 8, 0, 0, 0, 0, 21, 0, 0)
s = 157: (0, 15, 0, 0, 12, 0, 0, 0, 0, 11, 0, 0)
s = 158: (0, 8, 0, 0, 10, 0, 0, 0, 0, 14, 0, 0)
s = 159: (0, 9, 0, 0, 7, 0, 0, 0, 0, 20, 0, 0)
s = 160: (0, 10, 0, 0, 9, 0, 0, 0, 0, 17, 0, 0)
s = 161: (0, 8, 0, 0, 9, 0, 0, 0, 0, 23, 0, 0)
s = 162: (0, 8, 0, 0, 6, 0, 0, 0, 0, 11, 0, 0)
s = 163: (0, 6, 0, 0, 9, 0, 0, 0, 0, 10, 0, 0)
s = 164: (0, 8, 0, 0, 7, 0, 0, 0, 0, 15, 0, 0)
s = 165: (0, 8, 0, 0, 10, 0, 0, 0, 0, 19, 0, 0)
s = 166: (0, 8, 0, 0, 10, 0, 0, 0, 0, 18, 0, 0)
s = 167: (0, 7, 0, 0, 9, 0, 0, 0, 0, 21, 0, 0)
s = 168: (0, 14, 0, 0, 5, 0, 0, 0, 0, 12, 0, 0)
s = 169: (0, 7, 0, 0, 8, 0, 0, 0, 0, 21, 0, 0)
s = 170: (0, 17, 0, 0, 7, 0, 0, 0, 0, 16, 0, 0)
s = 171: (0, 9, 0, 0, 8, 0, 0, 0, 0, 14, 0, 0)
s = 172: (0, 12, 0, 0, 8, 0, 0, 0, 0, 22, 0, 0)
s = 173: (0, 8, 0, 0, 7, 0, 0, 0, 0, 15, 0, 0)
s = 174: (0, 7, 0, 0, 7, 0, 0, 0, 0, 12, 0, 0)
s = 175: (0, 12, 0, 0, 6, 0, 0, 0, 0, 24, 0, 0)
s = 176: (0, 10, 0, 0, 14, 0, 0, 0, 0, 11, 0, 0)
s = 177: (0, 19, 0, 0, 9, 0, 0, 0, 0, 14, 0, 0)
s = 178: (0, 11, 0, 0, 5, 0, 0, 0, 0, 16, 0, 0)
s = 179: (0, 10, 0, 0, 6, 0, 0, 0, 0, 15, 0, 0)
s = 180: (0, 12, 0, 0, 6, 0, 0, 0, 0, 13, 0, 0)
s = 181: (0, 12, 0, 0, 7, 0, 0, 0, 0, 26, 0, 0)
s = 182: (0, 6, 0, 0, 8, 0, 0, 0, 0, 15, 0, 0)
s = 183: (0, 7, 0, 0, 10, 0, 0, 0, 0, 11, 0, 0)
s = 184: (0, 10, 0, 0, 7, 0, 0, 0, 0, 12, 0, 0)
s = 185: (0, 16, 0, 0, 9, 0, 0, 0, 0, 15, 0, 0)
s = 186: (0, 10, 0, 0, 9, 0, 0, 0, 0, 13, 0, 0)
s = 187: (0, 10, 0, 0, 13, 0, 0, 0, 0, 13, 0, 0)
s = 188: (0, 16, 0, 0, 11, 0, 0, 0, 0, 8, 0, 0)
s = 189: (0, 8, 0, 0, 10, 0, 0, 0, 0, 15, 0, 0)
s = 190: (0, 11, 0, 0, 8, 0, 0, 0, 0, 15, 0, 0)
s = 191: (0, 11, 0, 0, 10, 0, 0, 0, 0, 11, 0, 0)
s = 192: (0, 9, 0, 0, 8, 0, 0, 0, 0, 10, 0, 0)
s = 193: (0, 12, 0, 0, 12, 0, 0, 0, 0, 17, 0, 0)
s = 194: (0, 9, 0, 0, 5, 0, 0, 0, 0, 18, 0, 0)
s = 195: (0, 10, 0, 0, 10, 0, 0, 0, 0, 10, 0, 0)
s = 196: (0, 13, 0, 0, 12, 0, 0, 0, 0, 15, 0, 0)
s = 197: (0, 12, 0, 0, 11, 0, 0, 0, 0, 17, 0, 0)
s = 198: (0, 10, 0, 0, 8, 0, 0, 0, 0, 10, 0, 0)
s = 199: (0, 8, 0, 0, 6, 0, 0, 0, 0, 19, 0, 0)
s = 200: (0, 11, 0, 0, 6, 0, 0, 0, 0, 23, 0, 0)
------------------------------------------------------------------------
RESOURCE k = 3
s = 1: (0, 0, 8, 15, 0, 46, 19, 20, 37, 0, 20, 0)
s = 2: (0, 0, 11, 14, 0, 27, 18, 13, 24, 0, 14, 0)
s = 3: (0, 0, 6, 19, 0, 48, 36, 34, 24, 0, 16, 0)
s = 4: (0, 0, 7, 23, 0, 26, 35, 16, 19, 0, 17, 0)
s = 5: (0, 0, 11, 13, 0, 48, 18, 17, 31, 0, 13, 0)
s = 6: (0, 0, 6, 21, 0, 49, 33, 22, 41, 0, 28, 0)
s = 7: (0, 0, 8, 18, 0, 23, 32, 18, 41, 0, 27, 0)
s = 8: (0, 0, 7, 25, 0, 33, 21, 20, 32, 0, 23, 0)
s = 9: (0, 0, 7, 11, 0, 58, 17, 23, 34, 0, 16, 0)
s = 10: (0, 0, 10, 10, 0, 57, 28, 24, 27, 0, 23, 0)
s = 11: (0, 0, 10, 20, 0, 57, 20, 26, 24, 0, 29, 0)
s = 12: (0, 0, 10, 23, 0, 28, 19, 18, 21, 0, 22, 0)
s = 13: (0, 0, 9, 18, 0, 27, 21, 25, 19, 0, 20, 0)
s = 14: (0, 0, 7, 22, 0, 43, 22, 11, 32, 0, 26, 0)
s = 15: (0, 0, 7, 11, 0, 42, 30, 13, 30, 0, 21, 0)
s = 16: (0, 0, 6, 14, 0, 31, 35, 21, 21, 0, 21, 0)
s = 17: (0, 0, 9, 23, 0, 61, 17, 15, 39, 0, 21, 0)
s = 18: (0, 0, 8, 15, 0, 69, 32, 19, 22, 0, 19, 0)
s = 19: (0, 0, 5, 11, 0, 25, 22, 19, 28, 0, 19, 0)
s = 20: (0, 0, 10, 16, 0, 39, 24, 25, 27, 0, 20, 0)
s = 21: (0, 0, 9, 20, 0, 39, 35, 12, 41, 0, 24, 0)
s = 22: (0, 0, 9, 25, 0, 26, 18, 15, 39, 0, 18, 0)
s = 23: (0, 0, 7, 24, 0, 50, 26, 20, 22, 0, 15, 0)
s = 24: (0, 0, 9, 18, 0, 32, 23, 34, 23, 0, 19, 0)
s = 25: (0, 0, 10, 23, 0, 27, 23, 37, 31, 0, 16, 0)
s = 26: (0, 0, 8, 18, 0, 36, 30, 20, 32, 0, 15, 0)
s = 27: (0, 0, 7, 14, 0, 55, 34, 18, 36, 0, 19, 0)
s = 28: (0, 0, 8, 15, 0, 53, 15, 23, 30, 0, 14, 0)
s = 29: (0, 0, 11, 15, 0, 40, 22, 23, 16, 0, 14, 0)
s = 30: (0, 0, 9, 15, 0, 27, 27, 21, 37, 0, 29, 0)
s = 31: (0, 0, 13, 30, 0, 29, 27, 13, 18, 0, 30, 0)
s = 32: (0, 0, 7, 20, 0, 42, 17, 14, 29, 0, 20, 0)
s = 33: (0, 0, 11, 12, 0, 58, 23, 24, 32, 0, 29, 0)
s = 34: (0, 0, 10, 15, 0, 49, 28, 20, 19, 0, 12, 0)
s = 35: (0, 0, 8, 18, 0, 49, 18, 19, 41, 0, 21, 0)
s = 36: (0, 0, 11, 19, 0, 26, 18, 26, 22, 0, 29, 0)
s = 37: (0, 0, 11, 15, 0, 38, 24, 27, 17, 0, 20, 0)
s = 38: (0, 0, 12, 13, 0, 24, 31, 19, 35, 0, 26, 0)
s = 39: (0, 0, 9, 26, 0, 38, 25, 27, 35, 0, 18, 0)
s = 40: (0, 0, 7, 25, 0, 42, 23, 16, 29, 0, 14, 0)
s = 41: (0, 0, 8, 14, 0, 27, 23, 20, 38, 0, 22, 0)
s = 42: (0, 0, 10, 18, 0, 28, 17, 12, 29, 0, 15, 0)
s = 43: (0, 0, 14, 28, 0, 25, 25, 22, 30, 0, 25, 0)
s = 44: (0, 0, 5, 18, 0, 50, 19, 14, 26, 0, 28, 0)
s = 45: (0, 0, 5, 18, 0, 26, 26, 19, 26, 0, 20, 0)
s = 46: (0, 0, 10, 16, 0, 50, 31, 14, 46, 0, 20, 0)
s = 47: (0, 0, 6, 14, 0, 23, 28, 17, 21, 0, 23, 0)
s = 48: (0, 0, 7, 14, 0, 33, 23, 25, 24, 0, 21, 0)
s = 49: (0, 0, 13, 16, 0, 25, 18, 15, 18, 0, 17, 0)
s = 50: (0, 0, 7, 17, 0, 60, 21, 16, 23, 0, 17, 0)
s = 51: (0, 0, 7, 26, 0, 47, 16, 27, 15, 0, 24, 0)
s = 52: (0, 0, 5, 21, 0, 44, 23, 15, 25, 0, 26, 0)
s = 53: (0, 0, 5, 16, 0, 23, 17, 25, 30, 0, 21, 0)
s = 54: (0, 0, 10, 12, 0, 23, 27, 18, 23, 0, 38, 0)
s = 55: (0, 0, 11, 13, 0, 44, 34, 23, 21, 0, 21, 0)
s = 56: (0, 0, 5, 15, 0, 50, 16, 15, 20, 0, 20, 0)
s = 57: (0, 0, 7, 15, 0, 37, 15, 18, 22, 0, 32, 0)
s = 58: (0, 0, 14, 12, 0, 40, 22, 22, 35, 0, 23, 0)
s = 59: (0, 0, 9, 20, 0, 33, 14, 16, 19, 0, 26, 0)
s = 60: (0, 0, 9, 18, 0, 26, 32, 14, 22, 0, 37, 0)
s = 61: (0, 0, 10, 15, 0, 30, 23, 23, 23, 0, 23, 0)
s = 62: (0, 0, 5, 33, 0, 45, 29, 31, 35, 0, 19, 0)
s = 63: (0, 0, 13, 12, 0, 37, 14, 21, 37, 0, 31, 0)
s = 64: (0, 0, 9, 22, 0, 32, 18, 15, 31, 0, 18, 0)
s = 65: (0, 0, 8, 18, 0, 33, 31, 29, 25, 0, 26, 0)
s = 66: (0, 0, 11, 29, 0, 32, 24, 16, 20, 0, 17, 0)
s = 67: (0, 0, 6, 12, 0, 37, 23, 25, 31, 0, 21, 0)
s = 68: (0, 0, 7, 16, 0, 28, 21, 32, 18, 0, 19, 0)
s = 69: (0, 0, 10, 22, 0, 27, 25, 19, 22, 0, 23, 0)
s = 70: (0, 0, 14, 24, 0, 34, 14, 26, 16, 0, 18, 0)
s = 71: (0, 0, 10, 17, 0, 27, 19, 15, 24, 0, 32, 0)
s = 72: (0, 0, 5, 18, 0, 30, 31, 24, 19, 0, 32, 0)
s = 73: (0, 0, 12, 11, 0, 47, 16, 24, 21, 0, 21, 0)
s = 74: (0, 0, 14, 27, 0, 46, 25, 17, 24, 0, 16, 0)
s = 75: (0, 0, 8, 18, 0, 22, 23, 15, 22, 0, 25, 0)
s = 76: (0, 0, 10, 18, 0, 30, 23, 31, 30, 0, 32, 0)
s = 77: (0, 0, 14, 13, 0, 41, 19, 20, 25, 0, 13, 0)
s = 78: (0, 0, 7, 23, 0, 24, 13, 20, 34, 0, 14, 0)
s = 79: (0, 0, 10, 24, 0, 54, 19, 16, 32, 0, 26, 0)
s = 80: (0, 0, 8, 21, 0, 67, 14, 18, 24, 0, 27, 0)
s = 81: (0, 0, 11, 14, 0, 39, 22, 26, 35, 0, 17, 0)
s = 82: (0, 0, 9, 14, 0, 67, 18, 26, 24, 0, 25, 0)
s = 83: (0, 0, 13, 24, 0, 59, 26, 22, 24, 0, 30, 0)
s = 84: (0, 0, 10, 17, 0, 50, 33, 24, 19, 0, 24, 0)
s = 85: (0, 0, 6, 15, 0, 39, 23, 25, 28, 0, 14, 0)
s = 86: (0, 0, 12, 15, 0, 60, 21, 27, 27, 0, 16, 0)
s = 87: (0, 0, 8, 15, 0, 55, 14, 21, 15, 0, 22, 0)
s = 88: (0, 0, 10, 26, 0, 38, 38, 28, 25, 0, 23, 0)
s = 89: (0, 0, 11, 23, 0, 44, 21, 22, 38, 0, 14, 0)
s = 90: (0, 0, 11, 17, 0, 47, 30, 18, 26, 0, 15, 0)
s = 91: (0, 0, 12, 22, 0, 41, 31, 20, 51, 0, 17, 0)
s = 92: (0, 0, 6, 19, 0, 52, 27, 16, 38, 0, 32, 0)
s = 93: (0, 0, 12, 15, 0, 51, 15, 22, 23, 0, 16, 0)
s = 94: (0, 0, 7, 13, 0, 34, 20, 13, 19, 0, 21, 0)
s = 95: (0, 0, 11, 17, 0, 46, 36, 11, 21, 0, 19, 0)
s = 96: (0, 0, 14, 15, 0, 50, 29, 19, 21, 0, 12, 0)
s = 97: (0, 0, 6, 18, 0, 24, 14, 20, 31, 0, 17, 0)
s = 98: (0, 0, 12, 18, 0, 34, 23, 13, 25, 0, 25, 0)
s = 99: (0, 0, 6, 14, 0, 32, 27, 17, 19, 0, 20, 0)
s = 100: (0, 0, 6, 20, 0, 23, 21, 23, 28, 0, 26, 0)
s = 101: (0, 0, 8, 24, 0, 53, 19, 34, 20, 0, 17, 0)
s = 102: (0, 0, 7, 15, 0, 41, 15, 15, 20, 0, 31, 0)
s = 103: (0, 0, 8, 25, 0, 38, 26, 25, 16, 0, 15, 0)
s = 104: (0, 0, 9, 24, 0, 61, 14, 21, 33, 0, 21, 0)
s = 105: (0, 0, 5, 13, 0, 47, 18, 22, 19, 0, 26, 0)
s = 106: (0, 0, 8, 17, 0, 45, 17, 22, 23, 0, 20, 0)
s = 107: (0, 0, 9, 14, 0, 55, 16, 26, 21, 0, 23, 0)
s = 108: (0, 0, 5, 20, 0, 41, 21, 17, 30, 0, 20, 0)
s = 109: (0, 0, 6, 11, 0, 50, 24, 15, 17, 0, 20, 0)
s = 110: (0, 0, 5, 16, 0, 69, 20, 17, 43, 0, 18, 0)
s = 111: (0, 0, 9, 22, 0, 53, 28, 15, 22, 0, 23, 0)
s = 112: (0, 0, 10, 23, 0, 39, 30, 20, 40, 0, 22, 0)
s = 113: (0, 0, 8, 19, 0, 27, 33, 23, 33, 0, 18, 0)
s = 114: (0, 0, 7, 20, 0, 21, 25, 25, 24, 0, 25, 0)
s = 115: (0, 0, 6, 12, 0, 53, 20, 18, 32, 0, 19, 0)
s = 116: (0, 0, 5, 23, 0, 57, 28, 23, 18, 0, 21, 0)
s = 117: (0, 0, 6, 18, 0, 37, 30, 18, 31, 0, 13, 0)
s = 118: (0, 0, 6, 21, 0, 35, 23, 21, 19, 0, 31, 0)
s = 119: (0, 0, 8, 25, 0, 25, 25, 31, 28, 0, 15, 0)
s = 120: (0, 0, 6, 21, 0, 31, 19, 20, 29, 0, 21, 0)
s = 121: (0, 0, 6, 13, 0, 26, 24, 25, 24, 0, 19, 0)
s = 122: (0, 0, 13, 21, 0, 33, 29, 25, 40, 0, 15, 0)
s = 123: (0, 0, 9, 18, 0, 49, 30, 15, 36, 0, 23, 0)
s = 124: (0, 0, 8, 14, 0, 53, 29, 19, 24, 0, 27, 0)
s = 125: (0, 0, 8, 23, 0, 24, 20, 17, 28, 0, 18, 0)
s = 126: (0, 0, 13, 19, 0, 36, 20, 30, 31, 0, 22, 0)
s = 127: (0, 0, 11, 16, 0, 37, 19, 28, 23, 0, 30, 0)
s = 128: (0, 0, 12, 19, 0, 41, 41, 17, 27, 0, 31, 0)
s = 129: (0, 0, 6, 14, 0, 38, 17, 20, 18, 0, 19, 0)
s = 130: (0, 0, 7, 19, 0, 37, 14, 18, 26, 0, 30, 0)
s = 131: (0, 0, 9, 21, 0, 28, 19, 23, 21, 0, 27, 0)
s = 132: (0, 0, 7, 19, 0, 50, 34, 30, 40, 0, 17, 0)
s = 133: (0, 0, 6, 18, 0, 27, 15, 15, 23, 0, 32, 0)
s = 134: (0, 0, 6, 22, 0, 39, 18, 15, 16, 0, 27, 0)
s = 135: (0, 0, 9, 13, 0, 66, 31, 11, 39, 0, 24, 0)
s = 136: (0, 0, 11, 32, 0, 46, 23, 15, 35, 0, 27, 0)
s = 137: (0, 0, 11, 22, 0, 44, 26, 22, 30, 0, 18, 0)
s = 138: (0, 0, 10, 24, 0, 44, 16, 22, 36, 0, 14, 0)
s = 139: (0, 0, 7, 11, 0, 27, 33, 20, 32, 0, 15, 0)
s = 140: (0, 0, 10, 27, 0, 53, 17, 14, 22, 0, 20, 0)
s = 141: (0, 0, 6, 21, 0, 40, 35, 21, 32, 0, 20, 0)
s = 142: (0, 0, 9, 16, 0, 30, 19, 18, 24, 0, 21, 0)
s = 143: (0, 0, 11, 25, 0, 43, 17, 18, 30, 0, 17, 0)
s = 144: (0, 0, 7, 15, 0, 52, 29, 17, 20, 0, 25, 0)
s = 145: (0, 0, 9, 23, 0, 36, 17, 21, 35, 0, 33, 0)
s = 146: (0, 0, 6, 20, 0, 42, 23, 23, 25, 0, 14, 0)
s = 147: (0, 0, 9, 16, 0, 43, 27, 20, 21, 0, 35, 0)
s = 148: (0, 0, 7, 15, 0, 30, 29, 22, 23, 0, 16, 0)
s = 149: (0, 0, 9, 10, 0, 37, 18, 24, 22, 0, 16, 0)
s = 150: (0, 0, 5, 19, 0, 48, 22, 31, 16, 0, 21, 0)
s = 151: (0, 0, 9, 13, 0, 46, 24, 27, 23, 0, 16, 0)
s = 152: (0, 0, 7, 17, 0, 57, 25, 21, 21, 0, 24, 0)
s = 153: (0, 0, 8, 14, 0, 26, 30, 20, 34, 0, 30, 0)
s = 154: (0, 0, 7, 20, 0, 37, 37, 23, 19, 0, 22, 0)
s = 155: (0, 0, 5, 16, 0, 36, 15, 34, 26, 0, 18, 0)
s = 156: (0, 0, 11, 18, 0, 48, 22, 16, 22, 0, 24, 0)
s = 157: (0, 0, 5, 26, 0, 40, 22, 20, 42, 0, 16, 0)
s = 158: (0, 0, 10, 17, 0, 28, 21, 12, 30, 0, 19, 0)
s = 159: (0, 0, 5, 22, 0, 30, 21, 13, 31, 0, 13, 0)
s = 160: (0, 0, 11, 13, 0, 53, 16, 12, 36, 0, 21, 0)
s = 161: (0, 0, 10, 19, 0, 42, 33, 21, 30, 0, 23, 0)
s = 162: (0, 0, 10, 16, 0, 40, 40, 23, 26, 0, 16, 0)
s = 163: (0, 0, 7, 19, 0, 26, 24, 31, 26, 0, 12, 0)
s = 164: (0, 0, 5, 12, 0, 30, 27, 28, 42, 0, 18, 0)
s = 165: (0, 0, 7, 17, 0, 34, 18, 25, 17, 0, 13, 0)
s = 166: (0, 0, 10, 12, 0, 44, 24, 15, 18, 0, 34, 0)
s = 167: (0, 0, 7, 19, 0, 38, 30, 17, 26, 0, 25, 0)
s = 168: (0, 0, 9, 14, 0, 34, 18, 20, 27, 0, 32, 0)
s = 169: (0, 0, 7, 12, 0, 40, 26, 21, 22, 0, 23, 0)
s = 170: (0, 0, 12, 18, 0, 40, 24, 18, 24, 0, 25, 0)
s = 171: (0, 0, 11, 18, 0, 24, 17, 23, 20, 0, 23, 0)
s = 172: (0, 0, 9, 28, 0, 24, 27, 21, 37, 0, 20, 0)
s = 173: (0, 0, 8, 20, 0, 30, 36, 19, 21, 0, 28, 0)
s = 174: (0, 0, 8, 18, 0, 58, 19, 17, 32, 0, 28, 0)
s = 175: (0, 0, 11, 18, 0, 43, 14, 27, 37, 0, 23, 0)
s = 176: (0, 0, 8, 17, 0, 37, 17, 15, 27, 0, 36, 0)
s = 177: (0, 0, 11, 16, 0, 43, 23, 19, 25, 0, 20, 0)
s = 178: (0, 0, 11, 20, 0, 31, 42, 20, 27, 0, 22, 0)
s = 179: (0, 0, 7, 13, 0, 43, 37, 15, 21, 0, 20, 0)
s = 180: (0, 0, 11, 31, 0, 53, 27, 18, 22, 0, 21, 0)
s = 181: (0, 0, 5, 17, 0, 46, 25, 14, 31, 0, 24, 0)
s = 182: (0, 0, 11, 21, 0, 51, 20, 17, 24, 0, 28, 0)
s = 183: (0, 0, 5, 15, 0, 28, 26, 24, 27, 0, 22, 0)
s = 184: (0, 0, 6, 14, 0, 36, 25, 14, 35, 0, 12, 0)
s = 185: (0, 0, 6, 15, 0, 34, 21, 21, 22, 0, 16, 0)
s = 186: (0, 0, 7, 26, 0, 45, 31, 18, 26, 0, 34, 0)
s = 187: (0, 0, 5, 12, 0, 49, 36, 26, 42, 0, 19, 0)
s = 188: (0, 0, 11, 15, 0, 26, 13, 16, 39, 0, 25, 0)
s = 189: (0, 0, 9, 14, 0, 33, 31, 25, 30, 0, 17, 0)
s = 190: (0, 0, 6, 14, 0, 28, 21, 20, 32, 0, 14, 0)
s = 191: (0, 0, 5, 11, 0, 44, 25, 19, 29, 0, 18, 0)
s = 192: (0, 0, 6, 19, 0, 45, 23, 15, 35, 0, 29, 0)
s = 193: (0, 0, 11, 20, 0, 30, 34, 15, 15, 0, 16, 0)
s = 194: (0, 0, 8, 32, 0, 26, 18, 29, 33, 0, 20, 0)
s = 195: (0, 0, 8, 18, 0, 30, 24, 14, 24, 0, 32, 0)
s = 196: (0, 0, 10, 23, 0, 45, 22, 22, 27, 0, 16, 0)
s = 197: (0, 0, 9, 18, 0, 38, 25, 30, 26, 0, 24, 0)
s = 198: (0, 0, 10, 16, 0, 50, 21, 13, 21, 0, 23, 0)
s = 199: (0, 0, 11, 16, 0, 27, 17, 32, 33, 0, 14, 0)
s = 200: (0, 0, 7, 20, 0, 27, 21, 24, 31, 0, 16, 0)
************************************************************************
ES/LS-VALUES:
jobnr.   ES(i)    LS(i)
------------------------------------------------------------------------
  0        0        0
  1        0       56
  2        0       73
  3        0       71
  4        1       63
  5        1       58
  6        9       67
  7        2       65
  8       14       77
  9       14       73
 10        9       77
 11       23       83
************************************************************************
BIG-M-VALUES:
M1 = 46, M2 = 190
************************************************************************
